c 1 ~  P0_k0 ~ 49
c 1 ~  P0_k1 ~ 50
c 1 ~  P0_k2 ~ 51
c 2 ~  P1_k0 ~ 52
c 2 ~  P1_k1 ~ 53
c 2 ~  P1_k2 ~ 54
c 3 ~  P2_k0 ~ 55
c 3 ~  P2_k1 ~ 56
c 3 ~  P2_k2 ~ 57
c 4 ~  P3_k0 ~ 58
c 4 ~  P3_k1 ~ 59
c 4 ~  P3_k2 ~ 60
c 5 ~  P4_k0 ~ 61
c 5 ~  P4_k1 ~ 62
c 5 ~  P4_k2 ~ 63
c 6 ~  P5_k0 ~ 64
c 6 ~  P5_k1 ~ 65
c 6 ~  P5_k2 ~ 66
p cnf 66 72
49 50 51 0
52 53 54 0
55 56 57 0
58 59 60 0
61 62 63 0
64 65 66 0
-49 -50 0
-49 -51 0
-50 -51 0
-52 -53 0
-52 -54 0
-53 -54 0
-55 -56 0
-55 -57 0
-56 -57 0
-58 -59 0
-58 -60 0
-59 -60 0
-61 -62 0
-61 -63 0
-62 -63 0
-64 -65 0
-64 -66 0
-65 -66 0
-49 -58 0
-50 -59 0
-51 -60 0
-49 -55 0
-50 -56 0
-51 -57 0
-49 -52 0
-50 -53 0
-51 -54 0
-52 -49 0
-53 -50 0
-54 -51 0
-52 -58 0
-53 -59 0
-54 -60 0
-52 -55 0
-53 -56 0
-54 -57 0
-55 -49 0
-56 -50 0
-57 -51 0
-55 -58 0
-56 -59 0
-57 -60 0
-55 -52 0
-56 -53 0
-57 -54 0
-58 -49 0
-59 -50 0
-60 -51 0
-58 -55 0
-59 -56 0
-60 -57 0
-58 -52 0
-59 -53 0
-60 -54 0
-58 -61 0
-59 -62 0
-60 -63 0
-61 -58 0
-62 -59 0
-63 -60 0
-61 -64 0
-62 -65 0
-63 -66 0
-64 -61 0
-65 -62 0
-66 -63 0
